
  22   10
  10   10   10   10   10   10   10   10   10   10

   0   0   0   0   0   0   0   0   0   0   0  15 2 3 4 5 6 7 8 9 10 11 12 13 19 20 21 
  10   0   0   0   0   0   0   0   0  10   0   3 17 15 14 
   7   0   0   0   0   0   0   0   0  10   0   3 17 15 14 
   1   0   0   0  10   0   0   0   0   0   0   1 14 
   4  10   0   0   0   0   0   0   0   0   0   1 14 
   1   0   0   0   0  10   0   0   0   0   0   1 14 
  10   0   0   0   0   0   0   0  10   0   0   1 16 
   5   0   0  10   0   0   0   0   0   0   0   1 18 
   6   0   0   0   0   0   0  10   0   0   0   1 16 
   3  10   0   0   0   0   0   0   0   0   0   1 15 
   5   0   0   0   0   0   0   0   0   0  10   1 15 
   3   0   0   0   0   0  10   0   0   0   0   1 14 
  10   0   0   0   0   0   0  10   0   0   0   1 14 
  10   0   0   0   0   0   0   0   0  10   0   1 22
   4   0   0   0   0   0   0   0   0   0  10   1 22
   6   0   0   0   0   0   0   0  10   0   0   1 22
  10   0   0   0   0   0   0   0   0   0  10   1 22
  10   0   0   0   0   0   0   0  10   0   0   1 22
   8   0   0   0   0   0   0   0   0  10   0   1 22
   7   0   0   0  10   0   0   0   0   0   0   1 22
   7   0   0   0   0   0   0   0  10   0   0   1 22
   0   0   0   0   0   0   0   0   0   0   0   0 
